10
1 0 6
2 0 3
2 1 1
3 0 2
3 1 7
3 2 9
4 0 8
4 1 2
4 2 8
4 3 6
5 0 5
5 1 5
5 2 1
5 3 6
5 4 8
6 0 2
6 1 5
6 2 4
6 3 1
6 4 1
6 5 7
7 0 1
7 1 1
7 2 1
7 3 1
7 4 5
7 5 7
7 6 7
8 0 4
8 1 7
8 2 8
8 3 3
8 4 2
8 5 4
8 6 6
8 7 4
9 0 3
9 1 3
9 2 8
9 3 4
9 4 9
9 5 9
9 6 3
9 7 6
9 8 5
